c User generated cnf file
p cnf 12 68
-1 9 9 0 
11 4 -2 0 
11 -1 8 0 
8 1 -6 0 
11 -5 4 0 
3 -5 7 0 
-5 5 8 0 
8 -9 1 0 
10 2 -6 0 
3 -2 7 0 
4 1 -11 0 
3 -10 12 0 
12 -8 8 0 
3 -11 9 0 
5 1 -12 0 
5 -6 8 0 
7 -6 9 0 
3 -6 5 0 
-5 9 1 0 
12 -4 6 0 
-5 1 3 0 
-1 12 4 0 
3 -4 1 0 
11 -1 7 0 
9 8 -5 0 
-3 2 3 0 
11 -2 7 0 
-5 5 3 0 
4 5 -4 0 
9 -1 5 0 
12 9 -11 0 
10 5 -5 0 
2 -2 3 0 
8 5 -1 0 
8 -6 9 0 
-11 3 10 0 
2 -6 3 0 
11 -8 5 0 
11 -11 7 0 
2 -1 3 0 
11 8 -4 0 
12 7 -11 0 
1 6 -9 0 
1 -1 11 0 
9 10 -12 0 
2 9 -10 0 
11 11 -2 0 
5 -2 7 0 
-4 3 7 0 
6 1 -11 0 
7 11 -4 0 
8 -5 9 0 
-12 3 12 0 
-2 2 3 0 
4 8 -11 0 
-11 7 9 0 
3 7 -3 0 
-5 5 8 0 
5 6 -2 0 
3 -12 4 0 
-6 1 6 0 
-9 1 3 0 
4 -6 10 0 
1 -8 8 0 
10 -11 12 0 
10 7 -11 0 
4 -12 2 0 
3 11 -9 0 
